25
923
2
8,71,81,43,61,89,5,29,79,13,54,44,13,37,92,67,37,89,70,45,77,45,97,71,27
35,59,54,7,91,26,28,18,34,39,64,54,96,33,32,2,60,83,51,11,26,49,16,71,59
2,1,1,1,2,2,2,2,1,1,1,1,1,2,2,2,2,1,2,1,1,2,1,1,1
